(set-logic BV) (define-fun origCir ((n130 Bool) (n107 Bool) (i_15 Bool) (n129 Bool)) Bool (and (xor (and n107 i_15) n130) n129)) (synth-fun skel ((n130 Bool) (n107 Bool) (i_15 Bool) (n129 Bool)) Bool) (declare-var n130 Bool) (declare-var n107 Bool) (declare-var i_15 Bool) (declare-var n129 Bool) (constraint (= (origCir n130 n107 i_15 n129) (skel n130 n107 i_15 n129))) (check-synth)
